certificates/rado_a15_c80_N44.cnf
c Rad2 upper bound instance: x1 + 15*x2 - x3 = 80, interval [1,44]
p cnf 44 256
1 6 11 0
-1 -6 -11 0
1 7 26 0
-1 -7 -26 0
1 8 41 0
-1 -8 -41 0
2 6 12 0
-2 -6 -12 0
2 7 27 0
-2 -7 -27 0
2 8 42 0
-2 -8 -42 0
3 6 13 0
-3 -6 -13 0
3 7 28 0
-3 -7 -28 0
3 8 43 0
-3 -8 -43 0
4 6 14 0
-4 -6 -14 0
4 7 29 0
-4 -7 -29 0
4 8 44 0
-4 -8 -44 0
5 6 15 0
-5 -6 -15 0
5 7 30 0
-5 -7 -30 0
1 5 6 0
-1 -5 -6 0
6 16 0
-6 -16 0
6 7 31 0
-6 -7 -31 0
2 5 7 0
-2 -5 -7 0
6 7 17 0
-6 -7 -17 0
7 32 0
-7 -32 0
3 5 8 0
-3 -5 -8 0
6 8 18 0
-6 -8 -18 0
7 8 33 0
-7 -8 -33 0
4 5 9 0
-4 -5 -9 0
6 9 19 0
-6 -9 -19 0
7 9 34 0
-7 -9 -34 0
5 10 0
-5 -10 0
6 10 20 0
-6 -10 -20 0
7 10 35 0
-7 -10 -35 0
5 6 11 0
-5 -6 -11 0
6 11 21 0
-6 -11 -21 0
7 11 36 0
-7 -11 -36 0
5 7 12 0
-5 -7 -12 0
6 12 22 0
-6 -12 -22 0
7 12 37 0
-7 -12 -37 0
5 8 13 0
-5 -8 -13 0
6 13 23 0
-6 -13 -23 0
7 13 38 0
-7 -13 -38 0
5 9 14 0
-5 -9 -14 0
6 14 24 0
-6 -14 -24 0
7 14 39 0
-7 -14 -39 0
5 10 15 0
-5 -10 -15 0
6 15 25 0
-6 -15 -25 0
7 15 40 0
-7 -15 -40 0
5 11 16 0
-5 -11 -16 0
6 16 26 0
-6 -16 -26 0
7 16 41 0
-7 -16 -41 0
5 12 17 0
-5 -12 -17 0
6 17 27 0
-6 -17 -27 0
7 17 42 0
-7 -17 -42 0
5 13 18 0
-5 -13 -18 0
6 18 28 0
-6 -18 -28 0
7 18 43 0
-7 -18 -43 0
5 14 19 0
-5 -14 -19 0
6 19 29 0
-6 -19 -29 0
7 19 44 0
-7 -19 -44 0
5 15 20 0
-5 -15 -20 0
6 20 30 0
-6 -20 -30 0
1 4 21 0
-1 -4 -21 0
5 16 21 0
-5 -16 -21 0
6 21 31 0
-6 -21 -31 0
2 4 22 0
-2 -4 -22 0
5 17 22 0
-5 -17 -22 0
6 22 32 0
-6 -22 -32 0
3 4 23 0
-3 -4 -23 0
5 18 23 0
-5 -18 -23 0
6 23 33 0
-6 -23 -33 0
4 24 0
-4 -24 0
5 19 24 0
-5 -19 -24 0
6 24 34 0
-6 -24 -34 0
4 5 25 0
-4 -5 -25 0
5 20 25 0
-5 -20 -25 0
6 25 35 0
-6 -25 -35 0
4 6 26 0
-4 -6 -26 0
5 21 26 0
-5 -21 -26 0
6 26 36 0
-6 -26 -36 0
4 7 27 0
-4 -7 -27 0
5 22 27 0
-5 -22 -27 0
6 27 37 0
-6 -27 -37 0
4 8 28 0
-4 -8 -28 0
5 23 28 0
-5 -23 -28 0
6 28 38 0
-6 -28 -38 0
4 9 29 0
-4 -9 -29 0
5 24 29 0
-5 -24 -29 0
6 29 39 0
-6 -29 -39 0
4 10 30 0
-4 -10 -30 0
5 25 30 0
-5 -25 -30 0
6 30 40 0
-6 -30 -40 0
4 11 31 0
-4 -11 -31 0
5 26 31 0
-5 -26 -31 0
6 31 41 0
-6 -31 -41 0
4 12 32 0
-4 -12 -32 0
5 27 32 0
-5 -27 -32 0
6 32 42 0
-6 -32 -42 0
4 13 33 0
-4 -13 -33 0
5 28 33 0
-5 -28 -33 0
6 33 43 0
-6 -33 -43 0
4 14 34 0
-4 -14 -34 0
5 29 34 0
-5 -29 -34 0
6 34 44 0
-6 -34 -44 0
4 15 35 0
-4 -15 -35 0
5 30 35 0
-5 -30 -35 0
1 3 36 0
-1 -3 -36 0
4 16 36 0
-4 -16 -36 0
5 31 36 0
-5 -31 -36 0
2 3 37 0
-2 -3 -37 0
4 17 37 0
-4 -17 -37 0
5 32 37 0
-5 -32 -37 0
3 38 0
-3 -38 0
4 18 38 0
-4 -18 -38 0
5 33 38 0
-5 -33 -38 0
3 4 39 0
-3 -4 -39 0
4 19 39 0
-4 -19 -39 0
5 34 39 0
-5 -34 -39 0
3 5 40 0
-3 -5 -40 0
4 20 40 0
-4 -20 -40 0
5 35 40 0
-5 -35 -40 0
3 6 41 0
-3 -6 -41 0
4 21 41 0
-4 -21 -41 0
5 36 41 0
-5 -36 -41 0
3 7 42 0
-3 -7 -42 0
4 22 42 0
-4 -22 -42 0
5 37 42 0
-5 -37 -42 0
4 23 43 0
-4 -23 -43 0
5 38 43 0
-5 -38 -43 0
3 9 44 0
-3 -9 -44 0
4 24 44 0
-4 -24 -44 0
5 39 44 0
-5 -39 -44 0
