certificates/rado_a15_c80_N44.drat
3 5 -41 -42 0
-39 -41 -42 -44 0
5 -41 -42 -44 0
-41 -42 -43 -44 0
-5 41 -42 -43 0
6 5 41 0
5 41 0
d 5 36 41 0
41 -42 -43 0
d -5 41 -42 -43 0
-42 -43 -44 0
d -41 -42 -43 -44 0
41 42 -43 0
-5 42 -43 0
7 5 42 0
5 42 0
d 5 37 42 0
42 -43 0
d -5 42 -43 0
-43 -44 0
d -42 -43 -44 0
-7 42 -44 0
42 -44 0
d -7 42 -44 0
7 -5 -42 0
-5 -42 0
d -5 -37 -42 0
-44 0
-42 0
-43 0
5 0
-10 0
7 0
-30 0
-32 0
-12 0
-2 0
4 0
6 0
8 0
-24 0
-9 0
-25 0
-26 0
-29 0
-27 0
-16 0
-15 0
-11 0
-1 0
-31 0
-17 0
-14 0
-13 0
-28 0
-3 0
-18 0
-33 0
0
